Linux optc-09-16 4.15.0-58-generic #64-Ubuntu SMP Tue Aug 6 11:12:41 UTC 2019 x86_64 x86_64 x86_64 GNU/Linux

top - 20:36:19 up 1 day, 10:36,  0 users,  load average: 0,85, 0,95, 0,99
Tasks: 289 gesamt,   1 laufend, 149 schlafend,   0 gestoppt,   0 Zombie
%CPU(s):  7,2 be,  0,3 sy,  0,0 ni, 92,6 un,  0,0 wa,  0,0 hi,  0,0 si,  0,0 st
KiB Spch : 97514992 gesamt, 88306304 frei,   648864 belegt,  8559824 Puff/Cache
KiB Swap:  8388604 gesamt,  8388604 frei,        0 belegt. 96114032 verfü Spch 

  PID USER      PR  NI    VIRT    RES    SHR S  %CPU %MEM     ZEIT+ BEFEHL
    1 root      20   0  233872   9412   6688 S   0,0  0,0   0:11.53 systemd
    2 root      20   0       0      0      0 S   0,0  0,0   0:00.12 kthreadd
    3 root      20   0       0      0      0 I   0,0  0,0   0:00.00 kworker/0:0
    4 root       0 -20       0      0      0 I   0,0  0,0   0:00.00 kworker/0:+
    6 root      20   0       0      0      0 I   0,0  0,0   0:00.00 kworker/u3+
    7 root       0 -20       0      0      0 I   0,0  0,0   0:00.00 mm_percpu_+
    8 root      20   0       0      0      0 S   0,0  0,0   0:00.00 ksoftirqd/0
    9 root      20   0       0      0      0 I   0,0  0,0   0:12.40 rcu_sched

hard time limit: 04:10:00
hard mem limit: 55100

SLURM jobID: 2182522

@01 /nfs/optimi/kombadon/IP/miplib/flugpl.mps.gz ===========
-----------------------------
Do 22. Aug 20:36:19 CEST 2019
-----------------------------
@03 1566498979
@05 7200
SCIP version 6.0.0 [precision: 8 byte] [memory: block] [mode: optimized] [LP solver: CPLEX 12.8.0.0] [GitHash: 41ab6e0014]
Copyright (C) 2002-2018 Konrad-Zuse-Zentrum fuer Informationstechnik Berlin (ZIB)

External codes: 
  Readline 7.0         GNU library for command line editing (gnu.org/s/readline)
  CPLEX 12.8.0.0       Linear Programming Solver developed by IBM (www.cplex.com)
  CppAD 20180000.0     Algorithmic Differentiation of C++ algorithms developed by B. Bell (www.coin-or.org/CppAD)
  ZLIB 1.2.11          General purpose compression library by J. Gailly and M. Adler (zlib.net)
  GMP 6.1.2            GNU Multiple Precision Arithmetic Library developed by T. Granlund (gmplib.org)
  bliss 0.73p          Computing Graph Automorphism Groups by T. Junttila and P. Kaski (http://www.tcs.hut.fi/Software/bliss/)

user parameter file <scip.set> not found - using default parameters

SCIP> 
SCIP> set load /home/optimi/bzfhende/opti/scip-opti/check/../settings/enable_treeeprofile.set
loaded parameter file </home/optimi/bzfhende/opti/scip-opti/check/../settings/enable_treeprofile.set>
SCIP> set misc referencevalue 1.2015000000e+06
misc/referencevalue = 1201500
SCIP> set limits time 7200
limits/time = 7200
SCIP> set limits nodes 2100000000
limits/nodes = 2100000000
SCIP> set limits memory 50000
limits/memory = 50000
SCIP> set lp advanced threads 1
lp/threads = 1
SCIP> set timing clocktype 1
timing/clocktype = 1
SCIP> set display freq 10000
display/freq = 10000
SCIP> set memory savefac 1.0
memory/savefac = 1
SCIP> set save /home/optimi/bzfhende/opti/scip-opti/check/treesize.estimation.jouurnal.3/bzfhende.MMMc.58_flugpl.scip.M640.enable_treeprofile.set
saved parameter file </home/optimi/bzfhende/opti/scip-opti/check/treesize.estimation.journal.3/bzfhende.MMMc.58_flugpl.scip.M640.enable_treeprofile.set>
SCIP> read /nfs/optimi/kombadon/IP/miplib/flugpl.mps.gz

read problem </nfs/optimi/kombadon/IP/miplib/flugpl.mps.gz>
============

original problem has 18 variables (0 bin, 11 int, 0 impl, 7 cont) and 18 constraints
SCIP> display parameters

number of parameters = 2448
non-default parameter settings:
display/freq = 10000
limits/time = 7200
limits/nodes = 2100000000
limits/memory = 50000
lp/threads = 1
memory/savefac = 1
misc/referencevalue = 1201500
presolving/maxrestarts = 0
estimates/profile/enabled = TRUE
estimates/profile/maxdepthfactor = 10
estimates/profile/freq = 0

SCIP> optimize

Activating tree profile data collection
presolving:
(round 1, fast)       4 del vars, 5 del conss, 0 add conss, 19 chg bounds, 1 chg sides, 0 chg coeffs, 0 upgd conss, 0 impls, 0 clqs
(round 2, fast)       4 del vars, 5 del conss, 0 add conss, 26 chg bounds, 1 chg sides, 0 chg coeffs, 0 upgd conss, 0 impls, 0 clqs
(round 3, fast)       4 del vars, 5 del conss, 0 add conss, 28 chg bounds, 1 chg sides, 0 chg coeffs, 0 upgd conss, 0 impls, 0 clqs
(round 4, fast)       4 del vars, 6 del conss, 0 add conss, 28 chg bounds, 1 chg sides, 0 chg coeffs, 0 upgd conss, 0 impls, 0 clqs
(round 5, exhaustive) 4 del vars, 6 del conss, 0 add conss, 28 chg bounds, 1 chg sides, 0 chg coeffs, 4 upgd conss, 0 impls, 0 clqs
(round 6, fast)       4 del vars, 6 del conss, 0 add conss, 29 chg bounds, 1 chg sides, 0 chg coeffs, 4 upgd conss, 0 impls, 0 clqs
presolving (7 rounds: 7 fast, 2 medium, 2 exhaustive):
 4 deleted vars, 6 deleted constraints, 0 added constraints, 29 tightened bounds, 0 added holes, 1 changed sides, 0 changed coefficients
 0 implications, 0 cliques
presolved problem has 14 variables (0 bin, 9 int, 5 impl, 0 cont) and 12 constraints
      4 constraints of type <varbound>
      8 constraints of type <linear>
transformed objective value is always integral (scale: 30)
Presolving Time: 0.00

 time | node  | left  |LP iter|LP it/n| mem |mdpt |frac |vars |cons |cols |rows |cuts |confs|strbr|  dualbound   | primalbound  |  gap   
V 0.0s|     1 |     0 |     0 |     - | 658k|   0 |   - |  14 |  12 |  14 |  12 |   0 |   0 |   0 | 1.056000e+06 | 1.318500e+06 |  24.86%
  0.0s|     1 |     0 |     9 |     - | 667k|   0 |   8 |  14 |  12 |  14 |  12 |   0 |   0 |   0 | 1.167875e+06 | 1.318500e+06 |  12.90%
s 0.0s|     1 |     0 |     9 |     - | 673k|   0 |   8 |  14 |  12 |  14 |  12 |   0 |   0 |   0 | 1.167875e+06 | 1.291500e+06 |  10.59%
  0.0s|     1 |     0 |    11 |     - | 700k|   0 |   7 |  14 |  12 |  14 |  14 |   2 |   0 |   0 | 1.170002e+06 | 1.291500e+06 |  10.38%
  0.0s|     1 |     0 |    12 |     - | 702k|   0 |   6 |  14 |  12 |  14 |  15 |   3 |   0 |   0 | 1.170798e+06 | 1.291500e+06 |  10.31%
  0.0s|     1 |     0 |    13 |     - | 723k|   0 |   5 |  14 |  12 |  14 |  16 |   4 |   0 |   0 | 1.171398e+06 | 1.291500e+06 |  10.25%
  0.0s|     1 |     0 |    14 |     - | 733k|   0 |   4 |  14 |  12 |  14 |  17 |   5 |   0 |   0 | 1.171609e+06 | 1.291500e+06 |  10.23%
  0.0s|     1 |     0 |    15 |     - | 744k|   0 |   6 |  14 |  12 |  14 |  18 |   6 |   0 |   0 | 1.172104e+06 | 1.291500e+06 |  10.19%
  0.0s|     1 |     0 |    16 |     - | 746k|   0 |   6 |  14 |  12 |  14 |  19 |   7 |   0 |   0 | 1.172239e+06 | 1.291500e+06 |  10.17%
  0.0s|     1 |     0 |    18 |     - | 782k|   0 |   7 |  14 |  12 |  14 |  20 |   8 |   0 |   0 | 1.172541e+06 | 1.291500e+06 |  10.15%
  0.0s|     1 |     0 |    21 |     - | 784k|   0 |   5 |  14 |  12 |  14 |  21 |   9 |   0 |   0 | 1.172653e+06 | 1.291500e+06 |  10.13%
  0.0s|     1 |     0 |    22 |     - | 819k|   0 |   6 |  14 |  12 |  14 |  22 |  10 |   0 |   0 | 1.172860e+06 | 1.291500e+06 |  10.12%
  0.0s|     1 |     0 |    25 |     - | 837k|   0 |   7 |  14 |  12 |  14 |  23 |  11 |   0 |   0 | 1.172939e+06 | 1.291500e+06 |  10.11%
  0.0s|     1 |     0 |    26 |     - | 837k|   0 |   4 |  14 |  12 |  14 |  24 |  12 |   0 |   0 | 1.172970e+06 | 1.291500e+06 |  10.11%
  0.0s|     1 |     0 |    28 |     - | 843k|   0 |   4 |  14 |  12 |  14 |  25 |  13 |   0 |   0 | 1.173108e+06 | 1.291500e+06 |  10.09%
 time | node  | left  |LP iter|LP it/n| mem |mdpt |frac |vars |cons |cols |rows |cuts |confs|strbr|  dualbound   | primalbound  |  gap   
  0.0s|     1 |     0 |    33 |     - | 849k|   0 |   6 |  14 |  12 |  14 |  26 |  14 |   0 |   0 | 1.173150e+06 | 1.291500e+06 |  10.09%
  0.0s|     1 |     0 |    35 |     - | 853k|   0 |   8 |  14 |  12 |  14 |  27 |  15 |   0 |   0 | 1.173183e+06 | 1.291500e+06 |  10.09%
L 0.0s|     1 |     0 |    69 |     - | 870k|   0 |   8 |  14 |  12 |  14 |  27 |  15 |   0 |   0 | 1.173183e+06 | 1.201500e+06 |   2.41%
  0.0s|     1 |     0 |    69 |     - | 870k|   0 |   8 |  14 |  12 |  14 |  27 |  15 |   0 |   0 | 1.173183e+06 | 1.201500e+06 |   2.41%
  0.0s|     1 |     0 |    71 |     - | 870k|   0 |   6 |  14 |  12 |  14 |  28 |  16 |   0 |   0 | 1.173196e+06 | 1.201500e+06 |   2.41%
  0.0s|     1 |     0 |    79 |     - | 871k|   0 |   4 |  14 |   7 |  14 |  27 |  16 |   0 |   5 | 1.183158e+06 | 1.201500e+06 |   1.55%
  0.0s|     1 |     0 |    80 |     - | 871k|   0 |   4 |  14 |   7 |  14 |  28 |  17 |   0 |   5 | 1.183169e+06 | 1.201500e+06 |   1.55%
SCIP nodes: 1 Estimation: -1
  0.0s|     1 |     0 |    80 |     - | 871k|   0 |   - |  14 |   2 |  14 |  28 |  17 |   1 |   7 | 1.201500e+06 | 1.201500e+06 |   0.00%
Report 1
Time Elapsed: 0.04
  Tree Data        : 1 nodes (1 visited, 0 inner, 1 leaves, 0 open), progress: 1.0000
Tree Estimation    :       estim       value       trend  resolution      smooth
  wbe              :          -1           -           -           -           -
  tree profile     :          -1           -           -           -           -
  gap              :           1     1.00000     1.00000           1           1
  progress         :           1     1.00000     1.00000           1           1
  leaf-frequency   :           1     0.50000     1.00000           1           1
  ssg              :           1     0.00000    -1.00000           1           1
  open-nodes       :           1     0.00000     0.00000           1           1
End of Report 1


SCIP Status        : problem is solved [optimal solution found]
Solving Time (sec) : 0.04
Solving Nodes      : 1
Primal Bound       : +1.20150000000000e+06 (8 solutions)
Dual Bound         : +1.20150000000000e+06
Gap                : 0.00 %

SCIP> display statistics

SCIP Status        : problem is solved [optimal solution found]
Total Time         :       0.04
  solving          :       0.04
  presolving       :       0.00 (included in solving)
  reading          :       0.00
  copying          :       0.00 (1 #copies) (minimal 0.00, maximal 0.00, average 0.00)
Original Problem   :
  Problem name     : FLUGPL
  Variables        : 18 (0 binary, 11 integer, 0 implicit integer, 7 continuous)
  Constraints      : 18 initial, 18 maximal
  Objective        : minimize, 18 non-zeros (abs.min = 30, abs.max = 2700)
Presolved Problem  :
  Problem name     : t_FLUGPL
  Variables        : 14 (0 binary, 9 integer, 5 implicit integer, 0 continuous)
  Constraints      : 12 initial, 12 maximal
  Objective        : minimize, 14 non-zeros (abs.min = 1, abs.max = 140)
Presolvers         :   ExecTime  SetupTime  Calls  FixedVars   AggrVars   ChgTypes  ChgBounds   AddHoles    DelCons    AddCons   ChgSides   ChgCoefs
  boundshift       :       0.00       0.00      0          0          0          0          0          0          0          0          0          0
  convertinttobin  :       0.00       0.00      0          0          0          0          0          0          0          0          0          0
  domcol           :       0.00       0.00      1          0          0          0          0          0          0          0          0          0
  dualagg          :       0.00       0.00      0          0          0          0          0          0          0          0          0          0
  dualcomp         :       0.00       0.00      0          0          0          0          0          0          0          0          0          0
  dualinfer        :       0.00       0.00      0          0          0          0          0          0          0          0          0          0
  gateextraction   :       0.00       0.00      0          0          0          0          0          0          0          0          0          0
  implics          :       0.00       0.00      2          0          0          0          0          0          0          0          0          0
  inttobinary      :       0.00       0.00      7          0          0          0          0          0          0          0          0          0
  qpkktref         :       0.00       0.00      0          0          0          0          0          0          0          0          0          0
  redvub           :       0.00       0.00      0          0          0          0          0          0          0          0          0          0
  sparsify         :       0.00       0.00      1          0          0          0          0          0          0          0          0          0
  stuffing         :       0.00       0.00      0          0          0          0          0          0          0          0          0          0
  symbreak         :       0.00       0.00      0          0          0          0          0          0          0          0          0          0
  symmetry         :       0.00       0.00      0          0          0          0          0          0          0          0          0          0
  trivial          :       0.00       0.00      7          0          0          0          0          0          0          0          0          0
  tworowbnd        :       0.00       0.00      0          0          0          0          0          0          0          0          0          0
  dualfix          :       0.00       0.00      7          1          0          0          0          0          0          0          0          0
  genvbounds       :       0.00       0.00      0          0          0          0          0          0          0          0          0          0
  orbitalfixing    :       0.00       0.00      0          0          0          0          0          0          0          0          0          0
  probing          :       0.00       0.00      1          0          0          0          0          0          0          0          0          0
  pseudoobj        :       0.00       0.00      0          0          0          0          0          0          0          0          0          0
  vbounds          :       0.00       0.00      0          0          0          0          0          0          0          0          0          0
  varbound         :       0.00       0.00      3          0          0          0          1          0          0          0          0          0
  linear           :       0.00       0.00      9          1          2          0         28          0          6          0          1          0
  benders          :       0.00       0.00      0          0          0          0          0          0          0          0          0          0
  components       :       0.00       0.00      1          0          0          0          0          0          0          0          0          0
  root node        :          -          -      -         10          -          -         46          -          -          -          -          -
Constraints        :     Number  MaxNumber  #Separate #Propagate    #EnfoLP    #EnfoRelax  #EnfoPS    #Check   #ResProp    Cutoffs    DomReds       Cuts    Applied      Conss   Children
  benderslp        :          0          0          0          0          2          0          0         16          0          0          0          0          0          0          0
  integral         :          0          0          0          0          2          0          0         16          0          0          4          0          0          0          0
  varbound         :          4          4         17        143          0          0          0         11          0          0          0          0          0          0          0
  linear           :          8          8         17        149          0          0          0         11         20         31         34          0          0          0          0
  benders          :          0          0          0          0          0          0          0          9          0          0          0          0          0          0          0
  countsols        :          0          0          0          0          0          0          0          9          0          0          0          0          0          0          0
  components       :          0          0          0          0          0          0          0          0          0          0          0          0          0          0          0
Constraint Timings :  TotalTime  SetupTime   Separate  Propagate     EnfoLP     EnfoPS     EnfoRelax   Check    ResProp    SB-Prop
  benderslp        :       0.00       0.00       0.00       0.00       0.00       0.00       0.00       0.00       0.00       0.00
  integral         :       0.00       0.00       0.00       0.00       0.00       0.00       0.00       0.00       0.00       0.00
  varbound         :       0.00       0.00       0.00       0.00       0.00       0.00       0.00       0.00       0.00       0.00
  linear           :       0.00       0.00       0.00       0.00       0.00       0.00       0.00       0.00       0.00       0.00
  benders          :       0.00       0.00       0.00       0.00       0.00       0.00       0.00       0.00       0.00       0.00
  countsols        :       0.00       0.00       0.00       0.00       0.00       0.00       0.00       0.00       0.00       0.00
  components       :       0.00       0.00       0.00       0.00       0.00       0.00       0.00       0.00       0.00       0.00
Propagators        : #Propagate   #ResProp    Cutoffs    DomReds
  dualfix          :         13          0          0          3
  genvbounds       :          0          0          0          0
  nlobbt           :          0          0          0          0
  obbt             :          0          0          0          0
  orbitalfixing    :          0          0          0          0
  probing          :          0          0          0          0
  pseudoobj        :         35          0          0          4
  redcost          :         22          0          0          0
  rootredcost      :          0          0          0          0
  vbounds          :        152          0          0          0
Propagator Timings :  TotalTime  SetupTime   Presolve  Propagate    ResProp    SB-Prop
  dualfix          :       0.00       0.00       0.00       0.00       0.00       0.00
  genvbounds       :       0.00       0.00       0.00       0.00       0.00       0.00
  nlobbt           :       0.00       0.00       0.00       0.00       0.00       0.00
  obbt             :       0.00       0.00       0.00       0.00       0.00       0.00
  orbitalfixing    :       0.00       0.00       0.00       0.00       0.00       0.00
  probing          :       0.00       0.00       0.00       0.00       0.00       0.00
  pseudoobj        :       0.00       0.00       0.00       0.00       0.00       0.00
  redcost          :       0.00       0.00       0.00       0.00       0.00       0.00
  rootredcost      :       0.00       0.00       0.00       0.00       0.00       0.00
  vbounds          :       0.00       0.00       0.00       0.00       0.00       0.00
Conflict Analysis  :       Time      Calls    Success    DomReds  Conflicts   Literals    Reconvs ReconvLits   Dualrays   Nonzeros   LP Iters   (pool size: [--,--])
  propagation      :       0.00          0          0          -          0        0.0          0        0.0          -          -          -
  infeasible LP    :       0.00          0          0          -          0        0.0          0        0.0          0        0.0          0
  bound exceed. LP :       0.00          2          1          -          2        2.0          0        0.0          0        0.0          0
  strong branching :       0.00          0          0          -          0        0.0          0        0.0          -          -          0
  pseudo solution  :       0.00          0          0          -          0        0.0          0        0.0          -          -          -
  applied globally :       0.00          -          -          0          1        1.0          -          -          0          -          -
  applied locally  :          -          -          -          0          0        0.0          -          -          0          -          -
Separators         :   ExecTime  SetupTime      Calls    Cutoffs    DomReds       Cuts    Applied      Conss
  cut pool         :       0.01                    32          -          -         61          -          -    (maximal pool size: 126)
  aggregation      :       0.03       0.00         17          0          0          0          0          0
  cgmip            :       0.00       0.00          0          0          0          0          0          0
  clique           :       0.00       0.00          1          0          0          0          0          0
  closecuts        :       0.00       0.00          0          0          0          0          0          0
  cmir             :       0.00       0.00          0          0          0          0          0          0
  convexproj       :       0.00       0.00          0          0          0          0          0          0
  disjunctive      :       0.00       0.00          0          0          0          0          0          0
  eccuts           :       0.00       0.00          0          0          0          0          0          0
  flowcover        :       0.00       0.00          0          0          0          0          0          0
  gauge            :       0.00       0.00          0          0          0          0          0          0
  gomory           :       0.00       0.00         10          0          0          0         16          0
  impliedbounds    :       0.00       0.00          0          0          0          0          0          0
  intobj           :       0.00       0.00          0          0          0          0          0          0
  mcf              :       0.00       0.00          1          0          0          0          0          0
  oddcycle         :       0.00       0.00          0          0          0          0          0          0
  rapidlearning    :       0.00       0.00          0          0          0          0          0          0
  strongcg         :       0.00       0.00         17          0          0          0          1          0
  zerohalf         :       0.00       0.00         17          0          0          0          0          0
Pricers            :   ExecTime  SetupTime      Calls       Vars
  problem variables:       0.00          -          0          0
Branching Rules    :   ExecTime  SetupTime   BranchLP  BranchExt   BranchPS    Cutoffs    DomReds       Cuts      Conss   Children
  allfullstrong    :       0.00       0.00          0          0          0          0          0          0          0          0
  cloud            :       0.00       0.00          0          0          0          0          0          0          0          0
  distribution     :       0.00       0.00          0          0          0          0          0          0          0          0
  fullstrong       :       0.00       0.00          0          0          0          0          0          0          0          0
  inference        :       0.00       0.00          0          0          0          0          0          0          0          0
  leastinf         :       0.00       0.00          0          0          0          0          0          0          0          0
  lookahead        :       0.00       0.00          0          0          0          0          0          0          0          0
  mostinf          :       0.00       0.00          0          0          0          0          0          0          0          0
  multaggr         :       0.00       0.00          0          0          0          0          0          0          0          0
  nodereopt        :       0.00       0.00          0          0          0          0          0          0          0          0
  pscost           :       0.00       0.00          0          0          0          0          0          0          0          0
  random           :       0.00       0.00          0          0          0          0          0          0          0          0
  relpscost        :       0.00       0.00          2          0          0          0          4          0          0          0
Primal Heuristics  :   ExecTime  SetupTime      Calls      Found       Best
  LP solutions     :       0.00          -          -          0          0
  relax solutions  :       0.00          -          -          0          0
  pseudo solutions :       0.00          -          -          0          0
  strong branching :       0.00          -          -          0          0
  actconsdiving    :       0.00       0.00          0          0          0
  alns             :       0.00       0.00          1          1          1
  bound            :       0.00       0.00          0          0          0
  clique           :       0.00       0.00          0          0          0
  coefdiving       :       0.00       0.00          0          0          0
  completesol      :       0.00       0.00          0          0          0
  conflictdiving   :       0.00       0.00          0          0          0
  crossover        :       0.00       0.00          0          0          0
  dins             :       0.00       0.00          0          0          0
  distributiondivin:       0.00       0.00          0          0          0
  dualval          :       0.00       0.00          0          0          0
  farkasdiving     :       0.00       0.00          1          0          0
  feaspump         :       0.00       0.00          1          0          0
  fixandinfer      :       0.00       0.00          0          0          0
  fracdiving       :       0.00       0.00          0          0          0
  gins             :       0.00       0.00          0          0          0
  guideddiving     :       0.00       0.00          0          0          0
  indicator        :       0.00       0.00          0          0          0
  intdiving        :       0.00       0.00          0          0          0
  intshifting      :       0.00       0.00          0          0          0
  linesearchdiving :       0.00       0.00          0          0          0
  localbranching   :       0.00       0.00          0          0          0
  locks            :       0.00       0.00          0          0          0
  lpface           :       0.00       0.00          0          0          0
  mpec             :       0.00       0.00          0          0          0
  multistart       :       0.00       0.00          0          0          0
  mutation         :       0.00       0.00          0          0          0
  nlpdiving        :       0.00       0.00          0          0          0
  objpscostdiving  :       0.00       0.00          0          0          0
  octane           :       0.00       0.00          0          0          0
  ofins            :       0.00       0.00          0          0          0
  oneopt           :       0.00       0.00          3          0          0
  proximity        :       0.00       0.00          0          0          0
  pscostdiving     :       0.00       0.00          0          0          0
  randrounding     :       0.00       0.00         19          0          0
  rens             :       0.00       0.00          0          0          0
  reoptsols        :       0.00       0.00          0          0          0
  repair           :       0.00       0.00          0          0          0
  rins             :       0.00       0.00          0          0          0
  rootsoldiving    :       0.00       0.00          0          0          0
  rounding         :       0.00       0.00         19          0          0
  shiftandpropagate:       0.00       0.00          0          0          0
  shifting         :       0.00       0.00         19          6          1
  simplerounding   :       0.00       0.00          0          0          0
  subnlp           :       0.00       0.00          0          0          0
  trivial          :       0.00       0.00          2          0          0
  trivialnegation  :       0.00       0.00          0          0          0
  trysol           :       0.00       0.00          0          0          0
  twoopt           :       0.00       0.00          0          0          0
  undercover       :       0.00       0.00          0          0          0
  vbounds          :       0.00       0.00          1          1          1
  veclendiving     :       0.00       0.00          0          0          0
  zeroobj          :       0.00       0.00          0          0          0
  zirounding       :       0.00       0.00          1          0          0
  other solutions  :          -          -          -          0          -
Diving Statistics  :      Calls      Nodes   LP Iters Backtracks  Conflicts   MinDepth   MaxDepth   AvgDepth  RoundSols  NLeafSols  MinSolDpt  MaxSolDpt  AvgSolDpt
  actconsdiving    :          0          -          -          -          -          -          -          -          -          -          -          -          -
  coefdiving       :          0          -          -          -          -          -          -          -          -          -          -          -          -
  conflictdiving   :          0          -          -          -          -          -          -          -          -          -          -          -          -
  distributiondivin:          0          -          -          -          -          -          -          -          -          -          -          -          -
  farkasdiving     :          1         22         34          8          0         15         15       15.0          0          -          -          -          -
  fracdiving       :          0          -          -          -          -          -          -          -          -          -          -          -          -
  guideddiving     :          0          -          -          -          -          -          -          -          -          -          -          -          -
  linesearchdiving :          0          -          -          -          -          -          -          -          -          -          -          -          -
  pscostdiving     :          0          -          -          -          -          -          -          -          -          -          -          -          -
  veclendiving     :          0          -          -          -          -          -          -          -          -          -          -          -          -
Neighborhoods      :      Calls  SetupTime  SolveTime SolveNodes       Sols       Best       Exp3  EpsGreedy        UCB TgtFixRate  Opt  Inf Node Stal  Sol  Usr Othr Actv
  rens             :          0       0.00       0.00          0          0          0    0.00000   -1.00000    1.00000      0.900    0    0    0    0    0    0    0    1
  rins             :          0       0.00       0.00          0          0          0    0.00000   -1.00000    1.00000      0.900    0    0    0    0    0    0    0    1
  mutation         :          0       0.00       0.00          0          0          0    0.00000   -1.00000    1.00000      0.900    0    0    0    0    0    0    0    1
  zeroobjective    :          1       0.00       0.00          1          1          1    0.00000   -1.00000    1.00000      0.700    1    0    0    0    0    0    0    1
  crossover        :          0       0.00       0.00          0          0          0    0.00000   -1.00000    1.00000      0.900    0    0    0    0    0    0    0    1
  localbranching   :          0       0.00       0.00          0          0          0    0.00000   -1.00000    1.00000      0.900    0    0    0    0    0    0    0    0
  proximity        :          0       0.00       0.00          0          0          0    0.00000   -1.00000    1.00000      0.900    0    0    0    0    0    0    0    0
  dins             :          0       0.00       0.00          0          0          0    0.00000   -1.00000    1.00000      0.900    0    0    0    0    0    0    0    0
LP                 :       Time      Calls Iterations  Iter/call   Iter/sec  Time-0-It Calls-0-It    ItLimit
  primal LP        :       0.00          1          0       0.00          -       0.00          1
  dual LP          :       0.00         19         46       2.56          -       0.00          1
  lex dual LP      :       0.00          0          0       0.00          -
  barrier LP       :       0.00          0          0       0.00          -       0.00          0
  resolve instable :       0.00          0          0       0.00          -
  diving/probing LP:       0.00         13         34       2.62          -
  strong branching :       0.00          7         49       7.00          -          -          -          0
    (at root node) :          -          7         49       7.00          -
  conflict analysis:       0.00          1          0       0.00          -
B&B Tree           :
  number of runs   :          1
  nodes            :          1 (0 internal, 1 leaves)
  feasible leaves  :          0
  infeas. leaves   :          1
  objective leaves :          0
  nodes (total)    :          1 (0 internal, 1 leaves)
  nodes left       :          0
  max depth        :          0
  max depth (total):          0
  backtracks       :          0 (0.0%)
  early backtracks :          0 (0.0%)
  nodes exc. ref.  :          0 (0.0%)
  delayed cutoffs  :          0
  repropagations   :          0 (0 domain reductions, 0 cutoffs)
  avg switch length:       2.00
  switching time   :       0.00
Root Node          :
  First LP value   : +1.16787516637731e+06
  First LP Iters   :          9
  First LP Time    :       0.00
  Final Dual Bound : +1.20150000000000e+06
  Final Root Iters :         46
  Root LP Estimate :                     -
Solution           :
  Solutions found  :          8 (3 improvements)
  First Solution   : +1.31850000000000e+06   (in run 1, after 1 nodes, 0.00 seconds, depth 7, found by <vbounds>)
  Gap First Sol.   :      24.86 %
  Gap Last Sol.    :       2.41 %
  Primal Bound     : +1.20150000000000e+06   (in run 1, after 1 nodes, 0.03 seconds, depth 0, found by <alns>)
  Dual Bound       : +1.20150000000000e+06
  Gap              :       0.00 %
  Avg. Gap         :       7.50 % (0.30 primal-dual integral)
  Tree Data        : 1 nodes (1 visited, 0 inner, 1 leaves, 0 open), progress: 1.0000
Tree Estimation    :       estim       value       trend  resolution      smooth
  wbe              :           1           -           -           -           -
  tree profile     :          -1           -           -           -           -
  gap              :           1     1.00000     1.00000           1           1
  progress         :           1     1.00000     1.00000           1           1
  leaf-frequency   :           1     0.50000     1.00000           1           1
  ssg              :           1     0.00000    -1.00000           1           1
  open-nodes       :           1     0.00000     0.00000           1           1


SCIP> checksol

check best solution
solution is feasible in original problem
Violation          :    absolute    relative
  bounds           : 0.00000e+00 0.00000e+00
  integrality      : 0.00000e+00           -
  LP rows          : 0.00000e+00 0.00000e+00
  constraints      : 0.00000e+00 0.00000e+00

SCIP> write sol /local/tmp/bzfhende-tmpdir/bzfhende.MMMc.58_flugpl.scip.M640.enabble_treeprofile.sol

written solution information to file </local/tmp/bzfhende-tmpdir/bzfhende.MMMc.58_flugpl.scip.M640.enable_treeprofile.sol>

SCIP> quit

Disabling tree profile data collection
Read MPS: 1
MIP has 18 vars and 18 constraints
Read SOL: 1
Objective value computed by solver: 1201500

Integrality tolerance: 1/10000
Linear tolerance: 1/10000
Objective tolerance: 1/10000

Check SOL: Integrality 1 Constraints 1 Objective 1
Maximum violations: Integrality 0 Constraints 0 Objective 0
@04 1566498979
-----------------------------
Do 22. Aug 20:36:19 CEST 2019
-----------------------------

=ready=
